NAME : ftv44.66.2225.tour
COMMENT : Length = 2225
COMMENT : Found by LKH [Keld Helsgaun] Tue Dec 11 00:01:48 2018
TYPE : TOUR
DIMENSION : 46
TOUR_SECTION
1
32
31
25
26
28
29
34
35
37
38
39
36
33
30
27
24
18
15
12
21
9
42
6
46
40
41
7
10
8
11
44
13
14
16
17
19
43
23
20
22
2
3
45
4
5
-1
EOF
